6300617711277125375503,10,1,2,08,1,1,2,01,6,1,2,02,10,1,2,09,10,1,2,07,2,1,2,015,1,1,2,04,8,1,2,08,12,1,2,010,15,1,2,03,7,1,2,012,9,1,2,014,1,1,2,07,14,1,2,010,2,1,2,012,2,1,2,09,5,1,2,015,4,1,2,04,10,1,2,09,7,1,2,04,2,1,2,014,7,1,2,04,8,1,2,011,4,1,2,013,5,1,2,012,2,1,2,05,6,1,2,013,13,1,2,09,11,1,2,011,2,1,2,01,10,1,2,07,6,1,2,04,12,1,2,012,9,1,2,011,12,1,2,09,3,1,2,09,4,1,2,012,13,1,2,02,6,1,2,013,6,1,2,014,9,1,2,03,8,1,2,08,14,1,2,015,6,1,2,012,2,1,2,08,1,1,2,012,4,1,2,09,6,1,2,014,13,1,2,08,3,1,2,0